; benchmark generated from python API
(set-info :status unknown)
(declare-fun x_month () Int)
(declare-fun x_day () Int)
(declare-fun x_year () Int)
(assert
 (>= x_month 1))
(assert
 (<= x_month 12))
(assert
 (>= x_day 1))
(assert
 (<= x_day 31))
(assert
 (let (($x672 (<= x_day 28)))
 (let (($x108 (<= x_day 29)))
 (let (($x280 (= (mod x_year 400) 0)))
 (let (($x518 (= (mod x_year 4) 0)))
 (let (($x649 (ite (or (and $x518 (and (distinct (mod x_year 100) 0) true)) $x280) $x108 $x672)))
 (let (($x113 (= x_month 2)))
 (ite $x113 $x649 true))))))))
(assert
 (let (($x143 (<= x_day 30)))
 (let (($x206 (or (= x_month 4) (= x_month 6) (= x_month 9) (= x_month 11))))
 (ite $x206 $x143 true))))
(assert
 (let (($x545 (= x_year 2023)))
 (let (($x276 (and $x545 (or (> x_month 1) (and (= x_month 1) (>= x_day 1))))))
 (or (> x_year 2023) $x276))))
(assert
 (let (($x302 (or (= (+ (mod (- (+ x_month 0) 1) 12) 1) 4) (= (+ (mod (- (+ x_month 0) 1) 12) 1) 6) (= (+ (mod (- (+ x_month 0) 1) 12) 1) 9) (= (+ (mod (- (+ x_month 0) 1) 12) 1) 11))))
(let ((?x505 (+ x_year 0)))
(let ((?x135 (+ ?x505 (div (- (+ x_month 0) 1) 12))))
(let (($x553 (or (and (= (mod ?x135 4) 0) (and (distinct (mod ?x135 100) 0) true)) (= (mod ?x135 400) 0))))
(let ((?x610 (ite (= (+ (mod (- (+ x_month 0) 1) 12) 1) 2) (ite $x553 29 28) (ite $x302 30 31))))
(let (($x454 (< x_day 1)))
(let ((?x607 (ite $x454 1 (ite (> x_day ?x610) ?x610 x_day))))
(let ((?x371 (ite (< ?x607 1) 1 (ite (> ?x607 ?x610) ?x610 ?x607))))
(let ((?x211 (ite (< 2 (+ (mod (- (+ x_month 0) 1) 12) 1)) (- 3) 9)))
(let ((?x447 (+ (mod (- (+ x_month 0) 1) 12) 1)))
(let ((?x530 (- (+ ?x135 (* (div 31 146097) 400)) (ite (>= 2 ?x447) 1 0))))
(let ((?x186 (ite (<= 0 ?x530) (div ?x530 400) (div (- ?x530 399) 400))))
(let ((?x562 (- ?x530 (* ?x186 400))))
(let ((?x178 (+ (- (+ (* ?x562 365) (div ?x562 4)) (div ?x562 100)) (- (+ (div (+ (* 153 (+ ?x447 ?x211)) 2) 5) ?x371) 1))))
(let ((?x416 (+ (+ (* ?x186 146097) ?x178) (mod 31 146097))))
(let ((?x232 (ite (<= 0 ?x416) (div ?x416 146097) (div (- ?x416 146096) 146097))))
(let ((?x230 (- ?x416 (* ?x232 146097))))
(let ((?x508 (div (+ (* 400 ?x230) 591) 146097)))
(let ((?x321 (- ?x230 (- (+ (* 365 ?x508) (div ?x508 4)) (div ?x508 100)))))
(let ((?x1157 (div (+ (* 5 ?x321) 2) 153)))
(let ((?x526 (+ (- ?x321 (div (+ (* 153 ?x1157) 2) 5)) 1)))
(let (($x207 (= 0 31)))
(let (($x1138 (or (= (+ (mod (- (+ x_month 1) 1) 12) 1) 4) (= (+ (mod (- (+ x_month 1) 1) 12) 1) 6) (= (+ (mod (- (+ x_month 1) 1) 12) 1) 9) (= (+ (mod (- (+ x_month 1) 1) 12) 1) 11))))
(let (($x517 (= (mod (+ ?x505 (div (- (+ x_month 1) 1) 12)) 400) 0)))
(let (($x274 (and (distinct (mod (+ ?x505 (div (- (+ x_month 1) 1) 12)) 100) 0) true)))
(let (($x614 (= (mod (+ ?x505 (div (- (+ x_month 1) 1) 12)) 4) 0)))
(let ((?x479 (ite (= (+ (mod (- (+ x_month 1) 1) 12) 1) 2) (ite (or (and $x614 $x274) $x517) 29 28) (ite $x1138 30 31))))
(let ((?x983 (ite $x454 1 (ite (> x_day ?x479) ?x479 x_day))))
(let ((?x751 (ite (< ?x983 1) 1 (ite (> ?x983 ?x479) ?x479 ?x983))))
(let ((?x170 (ite (< 2 (+ (mod (- (+ x_month 1) 1) 12) 1)) (- 3) 9)))
(let ((?x441 (+ (mod (- (+ x_month 1) 1) 12) 1)))
(let ((?x148 (+ ?x505 (div (- (+ x_month 1) 1) 12))))
(let ((?x662 (- (+ ?x148 (* (div 0 146097) 400)) (ite (>= 2 ?x441) 1 0))))
(let ((?x734 (ite (<= 0 ?x662) (div ?x662 400) (div (- ?x662 399) 400))))
(let ((?x1019 (- ?x662 (* ?x734 400))))
(let ((?x630 (+ (- (+ (* ?x1019 365) (div ?x1019 4)) (div ?x1019 100)) (- (+ (div (+ (* 153 (+ ?x441 ?x170)) 2) 5) ?x751) 1))))
(let ((?x620 (+ (+ (* ?x734 146097) ?x630) (mod 0 146097))))
(let ((?x115 (ite (<= 0 ?x620) (div ?x620 146097) (div (- ?x620 146096) 146097))))
(let ((?x443 (- ?x620 (* ?x115 146097))))
(let ((?x648 (div (+ (* 400 ?x443) 591) 146097)))
(let ((?x100 (- ?x443 (- (+ (* 365 ?x648) (div ?x648 4)) (div ?x648 100)))))
(let ((?x608 (div (+ (* 5 ?x100) 2) 153)))
(let (($x205 (= 0 0)))
(let ((?x301 (ite $x205 ?x751 (+ (- ?x100 (div (+ (* 153 ?x608) 2) 5)) 1))))
(let ((?x617 (- (+ ?x1157 3) (ite (> 10 ?x1157) 0 12))))
(let ((?x204 (ite $x207 ?x447 ?x617)))
(let ((?x765 (- (+ ?x608 3) (ite (> 10 ?x608) 0 12))))
(let ((?x130 (ite $x205 ?x441 ?x765)))
(let (($x1533 (or (< ?x130 ?x204) (and (= ?x130 ?x204) (<= ?x301 (ite $x207 ?x371 ?x526))))))
(let ((?x638 (+ (+ ?x508 (* ?x232 400)) (ite (>= 2 ?x617) 1 0))))
(let ((?x1451 (ite $x207 ?x135 ?x638)))
(let ((?x339 (ite $x205 ?x148 (+ (+ ?x648 (* ?x115 400)) (ite (>= 2 ?x765) 1 0)))))
(not (or (< ?x339 ?x1451) (and (= ?x339 ?x1451) $x1533))))))))))))))))))))))))))))))))))))))))))))))))))))))))
(check-sat)
